NAME : random_1
COMMENT : 37 random nodes
TYPE : TSP
DIMENSION : 37
EDGE_WEIGHT_TYPE : EUC_2D
NODE_COORD_SECTION
1 2252 -2684
2 -2160 4471
3 688 -1195
4 1619 2121
5 2205 2380
6 3600 3400
7 2119 4340
8 -388 -1841
9 4619 -45
10 4470 -2098
11 2336 -574
12 -2701 -719
13 958 938
14 -1644 -1086
15 2402 915
16 2094 465
17 1560 -2419
18 -612 -323
19 1587 -300
20 468 3882
21 -935 1205
22 365 116
23 -1528 2859
24 1459 4527
25 4035 353
26 938 10
27 2616 2824
28 1159 3325
29 -1876 2731
30 -1139 2659
31 -1408 891
32 4629 2005
33 4252 -2542
34 2708 971
35 -1192 -230
36 1740 989
37 3483 -1234
EOF